p wcnf 157 78 79 
1 129 -119 0 
1 -9 -119 0 
1 -101 -135 0 
1 -99 -9 0 
1 -125 118 0 
1 -117 -5 0 
1 -66 -26 0 
1 146 -117 0 
1 -141 -23 0 
1 124 -45 0 
1 -150 39 0 
1 33 45 0 
1 -136 -11 0 
1 -130 -77 0 
1 78 -70 0 
1 -108 -135 0 
1 -79 -135 0 
1 40 38 0 
1 -6 -14 0 
1 19 -53 0 
1 -64 116 0 
1 3 99 0 
1 115 -91 0 
1 -45 40 0 
1 -41 126 0 
1 73 31 0 
1 72 29 0 
1 -46 36 0 
1 -17 115 0 
1 144 -33 0 
1 -20 74 0 
1 3 -128 0 
1 -11 97 0 
1 -74 153 0 
1 -154 -55 0 
1 -92 -112 0 
1 -55 94 0 
1 50 -17 0 
1 -100 65 0 
1 101 -130 0 
1 23 141 0 
1 38 157 0 
1 -71 84 0 
1 33 116 0 
1 -48 -13 0 
1 64 42 0 
1 157 -101 0 
1 77 -118 0 
1 -77 35 0 
1 -116 151 0 
1 -109 -64 0 
1 -44 -113 0 
1 -143 130 0 
1 -147 92 0 
1 133 143 0 
1 72 -52 0 
1 -22 107 0 
1 -67 -97 0 
1 -71 156 0 
1 -113 64 0 
1 115 44 0 
1 -29 -130 0 
1 -94 69 0 
1 116 -35 0 
1 -39 -20 0 
1 114 11 0 
1 -108 -107 0 
1 -60 -104 0 
1 101 153 0 
1 -74 -91 0 
1 11 59 0 
1 -17 141 0 
1 -24 65 0 
1 -82 71 0 
1 116 65 0 
1 -125 -144 0 
1 -143 85 0 
1 13 76 0 
